Code 1734
Dimension, Median
   128       16
 Facility, Client, Transportation Cost
     1        1           4
     1        2           0
     1        3           3
     1        5           4
     1        9           2
     1       17           3
     1       33           1
     1       65           3
     2        1           0
     2        2           4
     2        4           2
     2        6           3
     2       10           1
     2       18           4
     2       34           3
     2       66           1
     3        1           2
     3        3           2
     3        4           2
     3        7           4
     3       11           4
     3       19           4
     3       35           1
     3       67           4
     4        2           0
     4        3           2
     4        4           1
     4        8           4
     4       12           4
     4       20           0
     4       36           2
     4       68           0
     5        1           3
     5        5           3
     5        6           2
     5        7           1
     5       13           3
     5       21           3
     5       37           3
     5       69           1
     6        2           0
     6        5           2
     6        6           0
     6        8           2
     6       14           1
     6       22           2
     6       38           2
     6       70           0
     7        3           4
     7        5           2
     7        7           2
     7        8           4
     7       15           1
     7       23           3
     7       39           3
     7       71           3
     8        4           1
     8        6           4
     8        7           0
     8        8           3
     8       16           2
     8       24           4
     8       40           1
     8       72           3
     9        1           0
     9        9           4
     9       10           4
     9       11           2
     9       13           1
     9       25           2
     9       41           3
     9       73           3
    10        2           0
    10        9           1
    10       10           0
    10       12           1
    10       14           2
    10       26           4
    10       42           4
    10       74           0
    11        3           2
    11        9           0
    11       11           4
    11       12           0
    11       15           4
    11       27           0
    11       43           4
    11       75           1
    12        4           4
    12       10           3
    12       11           2
    12       12           1
    12       16           0
    12       28           1
    12       44           2
    12       76           0
    13        5           1
    13        9           3
    13       13           4
    13       14           0
    13       15           0
    13       29           0
    13       45           4
    13       77           2
    14        6           4
    14       10           2
    14       13           4
    14       14           1
    14       16           4
    14       30           1
    14       46           0
    14       78           4
    15        7           3
    15       11           1
    15       13           0
    15       15           3
    15       16           0
    15       31           4
    15       47           3
    15       79           3
    16        8           4
    16       12           2
    16       14           3
    16       15           4
    16       16           4
    16       32           3
    16       48           1
    16       80           1
    17        1           3
    17       17           3
    17       18           0
    17       19           4
    17       21           2
    17       25           4
    17       49           3
    17       81           3
    18        2           2
    18       17           1
    18       18           2
    18       20           0
    18       22           1
    18       26           2
    18       50           4
    18       82           1
    19        3           4
    19       17           3
    19       19           3
    19       20           3
    19       23           0
    19       27           2
    19       51           2
    19       83           3
    20        4           1
    20       18           3
    20       19           1
    20       20           4
    20       24           0
    20       28           1
    20       52           1
    20       84           0
    21        5           2
    21       17           0
    21       21           4
    21       22           1
    21       23           3
    21       29           4
    21       53           4
    21       85           2
    22        6           3
    22       18           1
    22       21           2
    22       22           4
    22       24           4
    22       30           4
    22       54           3
    22       86           2
    23        7           4
    23       19           0
    23       21           1
    23       23           2
    23       24           2
    23       31           0
    23       55           4
    23       87           0
    24        8           2
    24       20           2
    24       22           1
    24       23           0
    24       24           2
    24       32           2
    24       56           3
    24       88           2
    25        9           3
    25       17           2
    25       25           2
    25       26           1
    25       27           1
    25       29           3
    25       57           4
    25       89           3
    26       10           1
    26       18           0
    26       25           4
    26       26           3
    26       28           1
    26       30           1
    26       58           2
    26       90           4
    27       11           2
    27       19           2
    27       25           1
    27       27           2
    27       28           3
    27       31           0
    27       59           2
    27       91           2
    28       12           4
    28       20           4
    28       26           0
    28       27           0
    28       28           3
    28       32           3
    28       60           0
    28       92           2
    29       13           2
    29       21           3
    29       25           1
    29       29           0
    29       30           0
    29       31           1
    29       61           2
    29       93           0
    30       14           0
    30       22           4
    30       26           3
    30       29           0
    30       30           0
    30       32           0
    30       62           4
    30       94           4
    31       15           3
    31       23           0
    31       27           0
    31       29           3
    31       31           4
    31       32           3
    31       63           1
    31       95           1
    32       16           4
    32       24           2
    32       28           1
    32       30           3
    32       31           4
    32       32           0
    32       64           1
    32       96           2
    33        1           4
    33       33           0
    33       34           2
    33       35           1
    33       37           0
    33       41           0
    33       49           2
    33       97           2
    34        2           0
    34       33           0
    34       34           3
    34       36           1
    34       38           1
    34       42           4
    34       50           0
    34       98           1
    35        3           1
    35       33           4
    35       35           2
    35       36           3
    35       39           4
    35       43           0
    35       51           4
    35       99           1
    36        4           1
    36       34           4
    36       35           4
    36       36           0
    36       40           1
    36       44           0
    36       52           3
    36      100           2
    37        5           0
    37       33           2
    37       37           4
    37       38           2
    37       39           2
    37       45           2
    37       53           0
    37      101           3
    38        6           3
    38       34           1
    38       37           3
    38       38           0
    38       40           3
    38       46           2
    38       54           3
    38      102           3
    39        7           3
    39       35           1
    39       37           3
    39       39           2
    39       40           1
    39       47           3
    39       55           3
    39      103           1
    40        8           4
    40       36           1
    40       38           1
    40       39           1
    40       40           0
    40       48           1
    40       56           1
    40      104           1
    41        9           4
    41       33           0
    41       41           0
    41       42           2
    41       43           3
    41       45           2
    41       57           4
    41      105           4
    42       10           3
    42       34           0
    42       41           0
    42       42           3
    42       44           2
    42       46           2
    42       58           0
    42      106           1
    43       11           0
    43       35           3
    43       41           1
    43       43           4
    43       44           1
    43       47           4
    43       59           0
    43      107           4
    44       12           0
    44       36           2
    44       42           0
    44       43           3
    44       44           0
    44       48           3
    44       60           3
    44      108           4
    45       13           1
    45       37           4
    45       41           0
    45       45           1
    45       46           0
    45       47           3
    45       61           0
    45      109           3
    46       14           2
    46       38           0
    46       42           0
    46       45           3
    46       46           2
    46       48           1
    46       62           1
    46      110           3
    47       15           2
    47       39           2
    47       43           4
    47       45           2
    47       47           4
    47       48           4
    47       63           4
    47      111           0
    48       16           3
    48       40           3
    48       44           0
    48       46           2
    48       47           0
    48       48           4
    48       64           1
    48      112           0
    49       17           1
    49       33           2
    49       49           3
    49       50           2
    49       51           3
    49       53           2
    49       57           3
    49      113           1
    50       18           0
    50       34           1
    50       49           4
    50       50           2
    50       52           0
    50       54           4
    50       58           1
    50      114           3
    51       19           1
    51       35           1
    51       49           4
    51       51           2
    51       52           2
    51       55           1
    51       59           2
    51      115           3
    52       20           0
    52       36           0
    52       50           3
    52       51           3
    52       52           4
    52       56           2
    52       60           2
    52      116           2
    53       21           2
    53       37           3
    53       49           2
    53       53           3
    53       54           2
    53       55           0
    53       61           1
    53      117           4
    54       22           2
    54       38           2
    54       50           1
    54       53           3
    54       54           0
    54       56           3
    54       62           3
    54      118           3
    55       23           2
    55       39           4
    55       51           2
    55       53           1
    55       55           3
    55       56           1
    55       63           3
    55      119           4
    56       24           3
    56       40           4
    56       52           2
    56       54           2
    56       55           4
    56       56           2
    56       64           4
    56      120           3
    57       25           3
    57       41           2
    57       49           3
    57       57           0
    57       58           3
    57       59           4
    57       61           3
    57      121           1
    58       26           2
    58       42           3
    58       50           1
    58       57           0
    58       58           3
    58       60           2
    58       62           4
    58      122           3
    59       27           0
    59       43           2
    59       51           3
    59       57           2
    59       59           2
    59       60           1
    59       63           3
    59      123           0
    60       28           1
    60       44           2
    60       52           2
    60       58           1
    60       59           2
    60       60           4
    60       64           1
    60      124           4
    61       29           3
    61       45           0
    61       53           3
    61       57           0
    61       61           2
    61       62           1
    61       63           3
    61      125           0
    62       30           0
    62       46           0
    62       54           2
    62       58           3
    62       61           1
    62       62           0
    62       64           0
    62      126           1
    63       31           4
    63       47           3
    63       55           2
    63       59           0
    63       61           3
    63       63           2
    63       64           4
    63      127           0
    64       32           4
    64       48           2
    64       56           4
    64       60           3
    64       62           1
    64       63           3
    64       64           0
    64      128           2
    65        1           2
    65       65           2
    65       66           2
    65       67           1
    65       69           3
    65       73           4
    65       81           1
    65       97           2
    66        2           1
    66       65           0
    66       66           1
    66       68           2
    66       70           0
    66       74           1
    66       82           0
    66       98           2
    67        3           4
    67       65           1
    67       67           2
    67       68           4
    67       71           3
    67       75           3
    67       83           2
    67       99           3
    68        4           4
    68       66           2
    68       67           2
    68       68           0
    68       72           0
    68       76           3
    68       84           2
    68      100           4
    69        5           0
    69       65           1
    69       69           0
    69       70           2
    69       71           0
    69       77           4
    69       85           1
    69      101           3
    70        6           4
    70       66           1
    70       69           4
    70       70           3
    70       72           4
    70       78           2
    70       86           0
    70      102           3
    71        7           4
    71       67           4
    71       69           1
    71       71           0
    71       72           3
    71       79           0
    71       87           2
    71      103           4
    72        8           3
    72       68           0
    72       70           4
    72       71           2
    72       72           4
    72       80           1
    72       88           0
    72      104           0
    73        9           3
    73       65           2
    73       73           4
    73       74           2
    73       75           3
    73       77           4
    73       89           1
    73      105           4
    74       10           2
    74       66           4
    74       73           1
    74       74           3
    74       76           3
    74       78           4
    74       90           0
    74      106           3
    75       11           4
    75       67           0
    75       73           0
    75       75           2
    75       76           1
    75       79           1
    75       91           1
    75      107           1
    76       12           3
    76       68           0
    76       74           2
    76       75           3
    76       76           4
    76       80           0
    76       92           1
    76      108           3
    77       13           2
    77       69           2
    77       73           3
    77       77           1
    77       78           3
    77       79           0
    77       93           0
    77      109           4
    78       14           4
    78       70           0
    78       74           4
    78       77           0
    78       78           1
    78       80           4
    78       94           4
    78      110           3
    79       15           3
    79       71           1
    79       75           2
    79       77           4
    79       79           2
    79       80           2
    79       95           3
    79      111           4
    80       16           4
    80       72           3
    80       76           4
    80       78           3
    80       79           3
    80       80           2
    80       96           2
    80      112           1
    81       17           0
    81       65           1
    81       81           3
    81       82           1
    81       83           2
    81       85           1
    81       89           4
    81      113           0
    82       18           4
    82       66           1
    82       81           3
    82       82           1
    82       84           1
    82       86           2
    82       90           0
    82      114           2
    83       19           3
    83       67           1
    83       81           0
    83       83           2
    83       84           1
    83       87           2
    83       91           2
    83      115           0
    84       20           2
    84       68           1
    84       82           1
    84       83           4
    84       84           3
    84       88           4
    84       92           2
    84      116           0
    85       21           0
    85       69           1
    85       81           0
    85       85           2
    85       86           3
    85       87           3
    85       93           1
    85      117           4
    86       22           0
    86       70           2
    86       82           4
    86       85           0
    86       86           4
    86       88           2
    86       94           4
    86      118           2
    87       23           4
    87       71           4
    87       83           0
    87       85           4
    87       87           3
    87       88           3
    87       95           2
    87      119           3
    88       24           2
    88       72           1
    88       84           2
    88       86           2
    88       87           4
    88       88           1
    88       96           4
    88      120           0
    89       25           3
    89       73           0
    89       81           0
    89       89           2
    89       90           1
    89       91           1
    89       93           3
    89      121           0
    90       26           4
    90       74           3
    90       82           3
    90       89           3
    90       90           4
    90       92           3
    90       94           0
    90      122           3
    91       27           4
    91       75           4
    91       83           3
    91       89           0
    91       91           2
    91       92           3
    91       95           2
    91      123           3
    92       28           0
    92       76           0
    92       84           0
    92       90           4
    92       91           2
    92       92           0
    92       96           2
    92      124           1
    93       29           1
    93       77           3
    93       85           0
    93       89           3
    93       93           4
    93       94           0
    93       95           1
    93      125           1
    94       30           4
    94       78           0
    94       86           1
    94       90           3
    94       93           1
    94       94           3
    94       96           3
    94      126           1
    95       31           1
    95       79           1
    95       87           4
    95       91           3
    95       93           0
    95       95           3
    95       96           0
    95      127           3
    96       32           1
    96       80           3
    96       88           1
    96       92           0
    96       94           1
    96       95           3
    96       96           0
    96      128           4
    97       33           1
    97       65           1
    97       97           1
    97       98           0
    97       99           1
    97      101           3
    97      105           4
    97      113           4
    98       34           3
    98       66           2
    98       97           3
    98       98           4
    98      100           0
    98      102           3
    98      106           0
    98      114           3
    99       35           2
    99       67           2
    99       97           4
    99       99           0
    99      100           1
    99      103           2
    99      107           3
    99      115           3
   100       36           0
   100       68           2
   100       98           0
   100       99           1
   100      100           1
   100      104           4
   100      108           4
   100      116           3
   101       37           0
   101       69           2
   101       97           4
   101      101           2
   101      102           3
   101      103           4
   101      109           0
   101      117           1
   102       38           4
   102       70           2
   102       98           0
   102      101           4
   102      102           2
   102      104           2
   102      110           1
   102      118           2
   103       39           4
   103       71           1
   103       99           2
   103      101           0
   103      103           0
   103      104           3
   103      111           4
   103      119           4
   104       40           1
   104       72           1
   104      100           1
   104      102           4
   104      103           3
   104      104           1
   104      112           3
   104      120           0
   105       41           2
   105       73           4
   105       97           1
   105      105           3
   105      106           2
   105      107           1
   105      109           3
   105      121           4
   106       42           2
   106       74           2
   106       98           4
   106      105           3
   106      106           1
   106      108           0
   106      110           4
   106      122           2
   107       43           1
   107       75           0
   107       99           1
   107      105           1
   107      107           0
   107      108           4
   107      111           4
   107      123           3
   108       44           4
   108       76           0
   108      100           2
   108      106           3
   108      107           2
   108      108           2
   108      112           3
   108      124           1
   109       45           0
   109       77           3
   109      101           2
   109      105           4
   109      109           4
   109      110           0
   109      111           1
   109      125           3
   110       46           1
   110       78           2
   110      102           3
   110      106           3
   110      109           4
   110      110           4
   110      112           4
   110      126           4
   111       47           4
   111       79           2
   111      103           2
   111      107           0
   111      109           1
   111      111           1
   111      112           0
   111      127           4
   112       48           2
   112       80           1
   112      104           0
   112      108           0
   112      110           3
   112      111           0
   112      112           4
   112      128           0
   113       49           3
   113       81           3
   113       97           3
   113      113           3
   113      114           4
   113      115           1
   113      117           0
   113      121           3
   114       50           0
   114       82           2
   114       98           4
   114      113           4
   114      114           1
   114      116           1
   114      118           0
   114      122           2
   115       51           0
   115       83           2
   115       99           1
   115      113           0
   115      115           3
   115      116           0
   115      119           4
   115      123           1
   116       52           1
   116       84           0
   116      100           2
   116      114           4
   116      115           3
   116      116           0
   116      120           3
   116      124           1
   117       53           3
   117       85           0
   117      101           3
   117      113           0
   117      117           1
   117      118           1
   117      119           3
   117      125           4
   118       54           3
   118       86           1
   118      102           4
   118      114           4
   118      117           2
   118      118           0
   118      120           3
   118      126           2
   119       55           1
   119       87           0
   119      103           3
   119      115           4
   119      117           3
   119      119           2
   119      120           3
   119      127           1
   120       56           3
   120       88           3
   120      104           2
   120      116           1
   120      118           4
   120      119           3
   120      120           1
   120      128           0
   121       57           4
   121       89           0
   121      105           0
   121      113           4
   121      121           1
   121      122           3
   121      123           2
   121      125           0
   122       58           3
   122       90           0
   122      106           2
   122      114           4
   122      121           0
   122      122           1
   122      124           3
   122      126           1
   123       59           2
   123       91           0
   123      107           2
   123      115           2
   123      121           4
   123      123           1
   123      124           4
   123      127           3
   124       60           2
   124       92           3
   124      108           3
   124      116           1
   124      122           4
   124      123           0
   124      124           1
   124      128           3
   125       61           1
   125       93           0
   125      109           0
   125      117           3
   125      121           4
   125      125           1
   125      126           0
   125      127           0
   126       62           4
   126       94           1
   126      110           2
   126      118           0
   126      122           2
   126      125           3
   126      126           2
   126      128           2
   127       63           0
   127       95           4
   127      111           1
   127      119           0
   127      123           0
   127      125           0
   127      127           3
   127      128           3
   128       64           1
   128       96           4
   128      112           1
   128      120           0
   128      124           3
   128      126           3
   128      127           0
   128      128           0
